NAME : gaussian_random86.6496.tour
COMMENT : Length = 6496
COMMENT : Found by LKH [Keld Helsgaun] Sun Jul  7 17:46:17 2024
TYPE : TOUR
DIMENSION : 86
TOUR_SECTION
1
51
22
13
75
85
27
33
28
55
70
37
62
10
72
79
12
60
16
65
35
41
58
49
29
8
52
83
81
59
73
39
84
66
17
44
6
3
74
63
4
48
20
86
23
36
21
77
38
82
61
67
47
31
30
34
56
80
40
26
19
71
7
64
45
53
24
15
32
18
42
2
69
50
9
46
57
14
78
25
11
5
76
43
54
68
-1
EOF
